(declare-const |j1':67:77:106| Int)
(declare-const |k':66:87:103| Int)
(declare-const |K:74:75:104| Int)
(declare-const |K:94:95:98| Int)
(declare-const |havoc:0| Int)
(declare-const |k':66:76:105| Int)
(declare-const |K:84:85:101| Int)
(declare-const |k':66:97:100| Int)
(declare-const |i1':78:86:102| Int)
(declare-const |havoc:1| Int)
(declare-const |i0':88:96:99| Int)
(assert (and (<= (+ (- |havoc:0|) -1000000) 0) (< (+ |havoc:0| -1000000) 0)
               (<= (+ (- |havoc:1|) -1000000) 0) (< (+ |havoc:1| -1000000) 0)
               (or (not (and (<= (- |K:94:95:98|) 0) (<= |K:94:95:98| 0)))
                     (= (+ |i0':88:96:99| (- |K:94:95:98|)) 0))
               (or (not (<= (+ (- |K:94:95:98|) 1) 0))
                     (= (+ |i0':88:96:99| (- |K:94:95:98|)) 0))
               (or (not (and (<= (- |K:94:95:98|) 0) (<= |K:94:95:98| 0)))
                     (= (+ |k':66:97:100| (- |K:94:95:98|)) 0))
               (or (not (<= (+ (- |K:94:95:98|) 1) 0))
                     (= (+ |k':66:97:100| (- |K:94:95:98|)) 0))
               (or (and (= |K:94:95:98| 0) (= (- |k':66:97:100|) 0)
                          (= (- |i0':88:96:99|) 0))
                     (and (<= (+ (- |K:94:95:98|) 1) 0)
                            (<= (+ (- |havoc:0|) 1) 0)
                            (= (+ (- |k':66:97:100|) |i0':88:96:99|) 0)
                            (<= (+ |k':66:97:100| (- |havoc:0|)) 0)
                            (<= (+ (- |k':66:97:100|) 1) 0)))
               (<= (- |K:94:95:98|) 0) (<= (- |k':66:97:100|) 0)
               (<= (- |i0':88:96:99|) 0)
               (= (+ |k':66:97:100| (- |i0':88:96:99|)) 0)
               (<= (+ (- |i0':88:96:99|) |havoc:0|) 0)
               (or (not (<= (- |K:84:85:101|) 0))
                     (= (+ |i1':78:86:102| (- |K:84:85:101|)) 0))
               (or (not (<= (- |K:84:85:101|) 0))
                     (= (+ |k':66:87:103| (- |K:84:85:101|)
                             (- |k':66:97:100|)) 0))
               (or (and (= |K:84:85:101| 0) (= (- |i1':78:86:102|) 0)
                          (= (+ (- |k':66:87:103|) |k':66:97:100|) 0))
                     (and (<= (+ (- |K:84:85:101|) 1) 0)
                            (<= (+ (- |havoc:1|) 1) 0)
                            (<= (- |k':66:97:100|) 0)
                            (<= (+ |i1':78:86:102| (- |havoc:1|)) 0)
                            (<= (+ (- |k':66:87:103|) 1) 0)
                            (<= (+ (- |i1':78:86:102|) 1) 0)))
               (<= (- |K:84:85:101|) 0) (<= (- |i1':78:86:102|) 0)
               (<= (- |k':66:87:103|) 0)
               (<= (+ (- |i1':78:86:102|) |havoc:1|) 0)
               (or (not (<= (- |K:74:75:104|) 0))
                     (= (+ |k':66:76:105| |K:74:75:104| (- |k':66:87:103|)) 0))
               (or (not (<= (- |K:74:75:104|) 0))
                     (= (+ |j1':67:77:106| (- |K:74:75:104|)) 0))
               (or (and (= |K:74:75:104| 0) (= (- |j1':67:77:106|) 0)
                          (= (+ (- |k':66:76:105|) |k':66:87:103|) 0))
                     (and (<= (+ (- |K:74:75:104|) 1) 0)
                            (<= (+ (- |havoc:1|) (- |havoc:0|) 1) 0)
                            (<= (+ (- |k':66:87:103|) 1) 0)
                            (<= (+ |j1':67:77:106| (- |havoc:1|)
                                     (- |havoc:0|)) 0)
                            (<= (- |k':66:76:105|) 0)
                            (<= (+ (- |j1':67:77:106|) 1) 0)))
               (<= (- |K:74:75:104|) 0) (<= (- |j1':67:77:106|) 0)
               (<= (- |k':66:76:105|) 0)
               (< (+ |j1':67:77:106| (- |havoc:1|) (- |havoc:0|)) 0)
               (not (< (- |k':66:76:105|) 0))))
(check-sat)
